c File: data_files/evolved_graphs/g3766.col
c
c Auto generated graph
c
p edge 100 1777
e 1 4
e 1 9
e 1 14
e 1 20
e 1 21
e 1 25
e 1 30
e 1 40
e 1 41
e 1 43
e 1 46
e 1 47
e 1 50
e 1 51
e 1 52
e 1 53
e 1 55
e 1 58
e 1 59
e 1 60
e 1 62
e 1 63
e 1 65
e 1 66
e 1 67
e 1 68
e 1 69
e 1 70
e 1 71
e 1 91
e 1 97
e 2 4
e 2 6
e 2 13
e 2 14
e 2 23
e 2 24
e 2 29
e 2 42
e 2 44
e 2 45
e 2 46
e 2 47
e 2 48
e 2 51
e 2 52
e 2 54
e 2 55
e 2 56
e 2 60
e 2 61
e 2 62
e 2 64
e 2 65
e 2 66
e 2 70
e 2 71
e 2 81
e 2 90
e 2 100
e 3 6
e 3 7
e 3 19
e 3 22
e 3 28
e 3 40
e 3 42
e 3 44
e 3 45
e 3 46
e 3 47
e 3 49
e 3 50
e 3 51
e 3 52
e 3 53
e 3 54
e 3 59
e 3 62
e 3 63
e 3 69
e 3 70
e 3 71
e 3 92
e 3 93
e 3 96
e 3 98
e 3 100
e 4 8
e 4 14
e 4 18
e 4 23
e 4 24
e 4 30
e 4 41
e 4 43
e 4 47
e 4 49
e 4 51
e 4 53
e 4 54
e 4 56
e 4 58
e 4 59
e 4 60
e 4 61
e 4 63
e 4 64
e 4 65
e 4 67
e 4 68
e 4 71
e 4 89
e 4 94
e 4 97
e 5 6
e 5 23
e 5 28
e 5 35
e 5 49
e 5 55
e 5 59
e 5 60
e 5 61
e 5 64
e 5 65
e 5 66
e 5 69
e 5 70
e 5 89
e 5 90
e 5 92
e 5 93
e 5 94
e 5 96
e 6 9
e 6 14
e 6 19
e 6 22
e 6 27
e 6 30
e 6 34
e 6 50
e 6 52
e 6 57
e 6 64
e 6 76
e 6 89
e 6 90
e 6 91
e 6 93
e 6 95
e 6 98
e 7 8
e 7 12
e 7 18
e 7 20
e 7 24
e 7 34
e 7 62
e 7 73
e 7 96
e 8 13
e 8 28
e 8 30
e 8 62
e 8 65
e 8 94
e 9 13
e 9 14
e 9 21
e 9 22
e 9 30
e 9 37
e 9 48
e 9 82
e 11 14
e 11 21
e 11 24
e 11 27
e 11 28
e 11 44
e 11 60
e 11 68
e 11 70
e 11 71
e 11 73
e 11 74
e 11 75
e 11 77
e 11 81
e 11 84
e 11 85
e 11 87
e 11 88
e 11 99
e 12 13
e 12 14
e 12 20
e 12 23
e 12 24
e 12 27
e 12 68
e 12 72
e 12 73
e 12 74
e 12 75
e 12 77
e 12 80
e 12 87
e 12 99
e 13 15
e 13 17
e 13 22
e 13 24
e 13 30
e 13 35
e 13 63
e 13 68
e 13 70
e 13 71
e 13 72
e 13 78
e 14 16
e 14 20
e 14 21
e 14 33
e 14 34
e 14 35
e 14 36
e 14 37
e 14 38
e 14 39
e 14 41
e 14 42
e 14 46
e 14 48
e 14 49
e 14 69
e 14 72
e 14 73
e 14 76
e 14 86
e 14 92
e 15 26
e 15 30
e 15 33
e 15 34
e 15 38
e 15 40
e 15 41
e 15 43
e 15 44
e 15 45
e 15 48
e 15 49
e 15 50
e 15 51
e 15 53
e 15 54
e 15 55
e 15 56
e 15 61
e 15 64
e 15 67
e 15 68
e 15 70
e 15 74
e 15 75
e 15 79
e 15 87
e 15 91
e 15 93
e 15 95
e 15 98
e 16 21
e 16 22
e 16 24
e 16 36
e 16 37
e 16 39
e 16 40
e 16 41
e 16 44
e 16 47
e 16 49
e 16 51
e 16 52
e 16 65
e 16 68
e 16 69
e 16 72
e 16 73
e 16 79
e 16 81
e 16 83
e 16 85
e 16 87
e 16 90
e 16 91
e 16 94
e 16 96
e 16 97
e 16 98
e 17 22
e 17 26
e 17 29
e 17 32
e 17 34
e 17 35
e 17 36
e 17 39
e 17 41
e 17 42
e 17 44
e 17 46
e 17 50
e 17 51
e 17 53
e 17 58
e 17 68
e 17 70
e 17 71
e 17 72
e 17 74
e 17 75
e 17 81
e 17 84
e 17 87
e 17 88
e 17 89
e 17 90
e 17 91
e 17 93
e 17 94
e 17 96
e 17 97
e 17 98
e 18 26
e 18 38
e 18 39
e 18 40
e 18 41
e 18 42
e 18 43
e 18 45
e 18 49
e 18 52
e 18 54
e 18 57
e 18 58
e 18 60
e 18 61
e 18 67
e 18 68
e 18 69
e 18 71
e 18 72
e 18 73
e 18 74
e 18 76
e 18 77
e 18 79
e 18 85
e 18 89
e 18 90
e 18 92
e 18 94
e 18 98
e 18 100
e 19 24
e 19 28
e 19 33
e 19 36
e 19 39
e 19 40
e 19 43
e 19 44
e 19 46
e 19 47
e 19 49
e 19 51
e 19 52
e 19 54
e 19 55
e 19 57
e 19 59
e 19 61
e 19 63
e 19 64
e 19 68
e 19 69
e 19 70
e 19 73
e 19 74
e 19 77
e 19 78
e 19 79
e 19 88
e 19 89
e 19 91
e 19 92
e 19 96
e 19 97
e 19 98
e 19 99
e 20 21
e 20 24
e 20 25
e 20 26
e 20 28
e 20 29
e 20 30
e 20 31
e 20 33
e 20 34
e 20 35
e 20 38
e 20 45
e 20 47
e 20 55
e 20 56
e 20 58
e 20 62
e 20 64
e 20 68
e 20 69
e 20 72
e 20 74
e 20 75
e 20 76
e 20 77
e 20 79
e 20 89
e 20 90
e 20 92
e 20 94
e 20 96
e 20 98
e 20 99
e 20 100
e 21 23
e 21 24
e 21 25
e 21 26
e 21 27
e 21 28
e 21 30
e 21 31
e 21 32
e 21 37
e 21 38
e 21 45
e 21 46
e 21 47
e 21 48
e 21 49
e 21 50
e 21 51
e 21 52
e 21 53
e 21 54
e 21 56
e 21 59
e 21 60
e 21 62
e 21 64
e 21 66
e 21 70
e 21 72
e 21 73
e 21 74
e 21 75
e 21 78
e 21 79
e 21 88
e 21 91
e 21 92
e 21 93
e 21 94
e 21 96
e 22 24
e 22 25
e 22 26
e 22 27
e 22 31
e 22 32
e 22 33
e 22 37
e 22 40
e 22 43
e 22 46
e 22 47
e 22 48
e 22 51
e 22 52
e 22 54
e 22 55
e 22 57
e 22 59
e 22 64
e 22 65
e 22 66
e 22 67
e 22 68
e 22 69
e 22 71
e 22 72
e 22 77
e 22 79
e 22 80
e 22 81
e 22 84
e 22 86
e 22 87
e 22 89
e 22 90
e 22 94
e 22 96
e 22 100
e 23 28
e 23 39
e 23 45
e 23 46
e 23 47
e 23 48
e 23 49
e 23 50
e 23 51
e 23 53
e 23 54
e 23 55
e 23 60
e 23 61
e 23 64
e 23 66
e 23 67
e 23 68
e 23 69
e 23 76
e 23 78
e 23 80
e 23 81
e 23 82
e 23 83
e 23 84
e 23 86
e 23 87
e 23 88
e 23 96
e 24 26
e 24 28
e 24 29
e 24 42
e 24 43
e 24 51
e 24 55
e 24 57
e 24 59
e 24 60
e 24 61
e 24 62
e 24 63
e 24 64
e 24 66
e 24 69
e 24 71
e 24 73
e 24 74
e 24 75
e 24 77
e 24 78
e 24 79
e 24 81
e 24 82
e 24 84
e 24 89
e 24 90
e 24 91
e 24 93
e 24 98
e 25 29
e 25 35
e 25 38
e 25 42
e 25 46
e 25 47
e 25 54
e 25 57
e 25 58
e 25 60
e 25 62
e 25 63
e 25 67
e 25 68
e 25 69
e 25 70
e 25 79
e 25 82
e 25 83
e 25 84
e 25 88
e 25 90
e 25 91
e 25 92
e 25 93
e 25 98
e 25 99
e 26 27
e 26 29
e 26 43
e 26 45
e 26 46
e 26 51
e 26 52
e 26 53
e 26 54
e 26 56
e 26 57
e 26 60
e 26 63
e 26 65
e 26 66
e 26 69
e 26 70
e 26 72
e 26 73
e 26 74
e 26 75
e 26 76
e 26 78
e 26 80
e 26 83
e 26 87
e 26 89
e 26 93
e 26 99
e 27 33
e 27 37
e 27 44
e 27 45
e 27 46
e 27 49
e 27 51
e 27 54
e 27 55
e 27 56
e 27 58
e 27 59
e 27 61
e 27 62
e 27 65
e 27 67
e 27 69
e 27 73
e 27 76
e 27 78
e 27 79
e 27 83
e 27 84
e 27 86
e 27 88
e 27 89
e 27 90
e 27 91
e 27 92
e 27 93
e 27 97
e 27 98
e 27 100
e 28 35
e 28 37
e 28 38
e 28 47
e 28 53
e 28 54
e 28 57
e 28 58
e 28 59
e 28 62
e 28 64
e 28 65
e 28 66
e 28 67
e 28 68
e 28 69
e 28 70
e 28 71
e 28 73
e 28 74
e 28 75
e 28 76
e 28 79
e 28 83
e 28 85
e 28 87
e 28 88
e 28 90
e 28 91
e 28 94
e 28 97
e 28 99
e 28 100
e 29 33
e 29 38
e 29 43
e 29 44
e 29 46
e 29 47
e 29 48
e 29 49
e 29 51
e 29 53
e 29 54
e 29 56
e 29 58
e 29 59
e 29 62
e 29 65
e 29 66
e 29 68
e 29 71
e 29 72
e 29 74
e 29 75
e 29 76
e 29 81
e 29 82
e 29 83
e 29 86
e 29 88
e 29 89
e 29 90
e 29 93
e 29 94
e 29 95
e 29 96
e 29 98
e 30 31
e 30 38
e 30 42
e 30 45
e 30 46
e 30 52
e 30 53
e 30 54
e 30 57
e 30 58
e 30 59
e 30 61
e 30 62
e 30 64
e 30 66
e 30 67
e 30 71
e 30 74
e 30 75
e 30 76
e 30 79
e 30 80
e 30 81
e 30 82
e 30 83
e 30 86
e 30 91
e 30 94
e 30 96
e 30 98
e 30 99
e 31 34
e 31 38
e 31 39
e 31 40
e 31 41
e 31 42
e 31 47
e 31 48
e 31 49
e 31 54
e 31 61
e 31 64
e 31 66
e 31 70
e 31 71
e 31 72
e 31 74
e 31 75
e 31 77
e 31 78
e 31 82
e 31 85
e 31 86
e 31 91
e 31 93
e 31 95
e 31 97
e 31 98
e 31 99
e 32 37
e 32 39
e 32 41
e 32 42
e 32 43
e 32 44
e 32 46
e 32 47
e 32 48
e 32 49
e 32 52
e 32 53
e 32 54
e 32 55
e 32 56
e 32 59
e 32 60
e 32 61
e 32 64
e 32 66
e 32 67
e 32 69
e 32 70
e 32 74
e 32 75
e 32 76
e 32 77
e 32 78
e 32 80
e 32 81
e 32 83
e 32 85
e 32 91
e 32 93
e 32 95
e 32 97
e 32 98
e 32 100
e 33 34
e 33 36
e 33 38
e 33 40
e 33 41
e 33 42
e 33 43
e 33 44
e 33 48
e 33 50
e 33 51
e 33 52
e 33 56
e 33 57
e 33 59
e 33 62
e 33 66
e 33 68
e 33 74
e 33 77
e 33 78
e 33 79
e 33 82
e 33 83
e 33 86
e 33 88
e 33 90
e 33 92
e 33 94
e 33 95
e 33 99
e 33 100
e 34 35
e 34 38
e 34 39
e 34 40
e 34 41
e 34 48
e 34 49
e 34 50
e 34 51
e 34 53
e 34 55
e 34 56
e 34 57
e 34 60
e 34 66
e 34 68
e 34 70
e 34 71
e 34 75
e 34 76
e 34 78
e 34 79
e 34 82
e 34 83
e 34 85
e 34 89
e 34 91
e 34 96
e 34 97
e 34 98
e 34 99
e 35 37
e 35 38
e 35 41
e 35 46
e 35 47
e 35 50
e 35 51
e 35 54
e 35 55
e 35 56
e 35 57
e 35 58
e 35 59
e 35 60
e 35 61
e 35 63
e 35 64
e 35 67
e 35 68
e 35 73
e 35 74
e 35 75
e 35 76
e 35 78
e 35 79
e 35 80
e 35 82
e 35 84
e 35 85
e 35 86
e 35 90
e 35 92
e 35 93
e 35 95
e 35 96
e 35 97
e 35 100
e 36 41
e 36 42
e 36 43
e 36 45
e 36 46
e 36 52
e 36 55
e 36 57
e 36 58
e 36 60
e 36 66
e 36 68
e 36 70
e 36 74
e 36 77
e 36 78
e 36 82
e 36 83
e 36 86
e 36 87
e 36 88
e 36 90
e 36 93
e 36 94
e 36 95
e 36 98
e 37 44
e 37 53
e 37 55
e 37 56
e 37 57
e 37 58
e 37 61
e 37 66
e 37 68
e 37 69
e 37 70
e 37 73
e 37 76
e 37 77
e 37 80
e 37 81
e 37 82
e 37 85
e 37 86
e 37 87
e 37 89
e 37 90
e 37 91
e 37 92
e 37 95
e 37 97
e 37 99
e 38 43
e 38 46
e 38 49
e 38 55
e 38 56
e 38 61
e 38 63
e 38 64
e 38 67
e 38 70
e 38 73
e 38 74
e 38 76
e 38 80
e 38 81
e 38 82
e 38 85
e 38 86
e 38 87
e 38 88
e 38 89
e 38 91
e 38 93
e 38 94
e 38 96
e 38 99
e 38 100
e 39 48
e 39 54
e 39 55
e 39 56
e 39 58
e 39 61
e 39 64
e 39 65
e 39 68
e 39 69
e 39 70
e 39 71
e 39 72
e 39 73
e 39 74
e 39 75
e 39 76
e 39 77
e 39 78
e 39 81
e 39 82
e 39 84
e 39 85
e 39 86
e 39 88
e 39 91
e 39 94
e 39 95
e 40 46
e 40 50
e 40 55
e 40 57
e 40 59
e 40 60
e 40 64
e 40 65
e 40 67
e 40 69
e 40 70
e 40 71
e 40 75
e 40 78
e 40 81
e 40 82
e 40 83
e 40 84
e 40 86
e 40 87
e 40 90
e 40 92
e 40 93
e 40 94
e 40 97
e 40 99
e 40 100
e 41 44
e 41 50
e 41 52
e 41 54
e 41 57
e 41 60
e 41 62
e 41 64
e 41 66
e 41 67
e 41 69
e 41 71
e 41 75
e 41 79
e 41 85
e 41 87
e 41 88
e 41 93
e 41 95
e 41 96
e 41 97
e 42 44
e 42 46
e 42 47
e 42 48
e 42 50
e 42 53
e 42 57
e 42 58
e 42 59
e 42 60
e 42 62
e 42 63
e 42 64
e 42 65
e 42 66
e 42 67
e 42 73
e 42 74
e 42 75
e 42 77
e 42 80
e 42 82
e 42 84
e 42 85
e 42 86
e 42 90
e 42 92
e 42 94
e 42 98
e 43 46
e 43 47
e 43 50
e 43 51
e 43 57
e 43 60
e 43 64
e 43 67
e 43 69
e 43 72
e 43 73
e 43 74
e 43 75
e 43 76
e 43 78
e 43 79
e 43 80
e 43 83
e 43 84
e 43 85
e 43 86
e 43 89
e 43 93
e 43 95
e 43 99
e 43 100
e 44 45
e 44 46
e 44 50
e 44 65
e 44 67
e 44 68
e 44 69
e 44 70
e 44 71
e 44 72
e 44 74
e 44 79
e 44 81
e 44 82
e 44 85
e 44 87
e 44 88
e 44 90
e 44 92
e 44 93
e 44 96
e 44 97
e 44 98
e 44 99
e 45 47
e 45 55
e 45 58
e 45 62
e 45 63
e 45 64
e 45 66
e 45 67
e 45 69
e 45 71
e 45 73
e 45 74
e 45 77
e 45 78
e 45 80
e 45 81
e 45 82
e 45 83
e 45 85
e 45 87
e 45 89
e 45 90
e 45 94
e 45 98
e 45 100
e 46 59
e 46 60
e 46 62
e 46 64
e 46 67
e 46 68
e 46 70
e 46 76
e 46 77
e 46 83
e 46 85
e 46 86
e 46 87
e 46 91
e 46 92
e 46 93
e 46 96
e 46 97
e 46 100
e 47 48
e 47 51
e 47 59
e 47 60
e 47 61
e 47 63
e 47 67
e 47 69
e 47 70
e 47 72
e 47 73
e 47 75
e 47 79
e 47 80
e 47 81
e 47 82
e 47 86
e 47 88
e 47 89
e 47 90
e 47 95
e 47 97
e 47 98
e 47 100
e 48 51
e 48 55
e 48 60
e 48 61
e 48 62
e 48 67
e 48 72
e 48 75
e 48 77
e 48 79
e 48 81
e 48 83
e 48 85
e 48 87
e 48 88
e 48 89
e 48 92
e 48 94
e 48 95
e 48 96
e 48 99
e 49 52
e 49 53
e 49 61
e 49 62
e 49 64
e 49 71
e 49 72
e 49 76
e 49 77
e 49 78
e 49 79
e 49 84
e 49 85
e 49 86
e 49 87
e 49 89
e 49 90
e 49 91
e 49 93
e 49 94
e 49 95
e 49 96
e 49 98
e 50 60
e 50 62
e 50 64
e 50 68
e 50 70
e 50 72
e 50 74
e 50 75
e 50 76
e 50 78
e 50 79
e 50 80
e 50 84
e 50 86
e 50 87
e 50 88
e 50 90
e 50 94
e 50 95
e 51 55
e 51 62
e 51 63
e 51 66
e 51 68
e 51 73
e 51 76
e 51 79
e 51 80
e 51 81
e 51 84
e 51 85
e 51 86
e 51 92
e 51 93
e 51 94
e 51 95
e 51 99
e 52 53
e 52 54
e 52 55
e 52 57
e 52 61
e 52 63
e 52 66
e 52 67
e 52 69
e 52 71
e 52 73
e 52 74
e 52 76
e 52 78
e 52 81
e 52 84
e 52 88
e 52 91
e 52 94
e 52 96
e 52 97
e 52 99
e 53 54
e 53 56
e 53 58
e 53 64
e 53 65
e 53 68
e 53 73
e 53 77
e 53 88
e 53 90
e 53 96
e 53 97
e 53 100
e 54 55
e 54 58
e 54 60
e 54 64
e 54 65
e 54 70
e 54 72
e 54 74
e 54 75
e 54 77
e 54 80
e 54 81
e 54 85
e 54 86
e 54 87
e 54 88
e 54 92
e 54 93
e 54 94
e 54 97
e 54 98
e 54 99
e 55 56
e 55 60
e 55 63
e 55 67
e 55 74
e 55 75
e 55 76
e 55 77
e 55 83
e 55 84
e 55 86
e 55 87
e 55 89
e 55 90
e 55 95
e 55 97
e 56 59
e 56 63
e 56 65
e 56 72
e 56 73
e 56 78
e 56 79
e 56 81
e 56 82
e 56 83
e 56 84
e 56 85
e 56 87
e 56 89
e 56 92
e 56 98
e 56 100
e 57 61
e 57 63
e 57 71
e 57 75
e 57 77
e 57 78
e 57 79
e 57 83
e 57 86
e 57 88
e 57 89
e 57 91
e 57 92
e 57 96
e 58 59
e 58 60
e 58 62
e 58 69
e 58 70
e 58 71
e 58 73
e 58 74
e 58 75
e 58 79
e 58 80
e 58 82
e 58 83
e 58 84
e 58 86
e 58 87
e 58 89
e 58 90
e 58 91
e 58 92
e 58 93
e 58 94
e 58 95
e 58 96
e 58 97
e 59 61
e 59 63
e 59 65
e 59 66
e 59 71
e 59 72
e 59 73
e 59 77
e 59 79
e 59 82
e 59 85
e 59 87
e 59 92
e 59 94
e 59 95
e 59 100
e 60 70
e 60 71
e 60 73
e 60 75
e 60 77
e 60 78
e 60 79
e 60 80
e 60 81
e 60 83
e 60 85
e 60 88
e 60 89
e 60 90
e 60 92
e 60 94
e 60 95
e 60 96
e 60 97
e 60 99
e 61 62
e 61 63
e 61 68
e 61 69
e 61 74
e 61 75
e 61 78
e 61 80
e 61 81
e 61 83
e 61 84
e 61 85
e 61 86
e 61 89
e 61 90
e 61 91
e 61 92
e 61 97
e 61 98
e 62 69
e 62 70
e 62 71
e 62 72
e 62 73
e 62 75
e 62 76
e 62 81
e 62 84
e 62 85
e 62 87
e 62 90
e 62 91
e 62 100
e 63 65
e 63 67
e 63 69
e 63 77
e 63 78
e 63 85
e 63 87
e 63 88
e 63 89
e 63 90
e 63 91
e 63 92
e 63 93
e 63 95
e 63 99
e 64 68
e 64 70
e 64 74
e 64 77
e 64 78
e 64 80
e 64 87
e 64 90
e 64 91
e 64 93
e 64 96
e 64 100
e 65 66
e 65 67
e 65 69
e 65 70
e 65 72
e 65 76
e 65 82
e 65 83
e 65 84
e 65 89
e 65 91
e 65 92
e 65 94
e 65 96
e 65 97
e 66 67
e 66 68
e 66 69
e 66 71
e 66 73
e 66 76
e 66 77
e 66 80
e 66 82
e 66 85
e 66 86
e 66 87
e 66 90
e 66 91
e 66 94
e 66 97
e 66 98
e 67 81
e 67 83
e 67 84
e 67 88
e 67 89
e 67 91
e 67 95
e 67 96
e 67 100
e 68 69
e 68 74
e 68 78
e 68 83
e 68 86
e 68 88
e 68 90
e 68 91
e 68 92
e 68 94
e 68 98
e 69 76
e 69 78
e 69 81
e 69 82
e 69 83
e 69 87
e 69 90
e 69 93
e 69 96
e 69 99
e 69 100
e 70 71
e 70 73
e 70 78
e 70 79
e 70 81
e 70 86
e 70 89
e 70 91
e 70 92
e 70 94
e 70 95
e 70 99
e 70 100
e 71 78
e 71 79
e 71 81
e 71 84
e 71 85
e 71 87
e 71 94
e 71 95
e 71 98
e 72 74
e 72 76
e 72 82
e 72 83
e 72 84
e 72 85
e 72 87
e 72 90
e 72 91
e 72 95
e 72 96
e 73 78
e 73 79
e 73 80
e 73 81
e 73 83
e 73 84
e 73 85
e 73 86
e 73 88
e 73 93
e 73 97
e 73 98
e 73 100
e 74 75
e 74 84
e 74 86
e 74 90
e 74 92
e 74 93
e 74 95
e 74 98
e 74 99
e 75 79
e 75 81
e 75 83
e 75 86
e 75 87
e 75 88
e 75 90
e 75 93
e 75 97
e 75 98
e 76 83
e 76 85
e 76 86
e 76 90
e 76 94
e 76 95
e 76 96
e 76 99
e 77 80
e 77 85
e 77 86
e 77 88
e 77 89
e 77 91
e 77 94
e 77 95
e 77 96
e 77 100
e 78 81
e 78 82
e 78 93
e 78 96
e 78 97
e 79 91
e 79 94
e 79 95
e 79 96
e 79 98
e 80 84
e 80 85
e 80 86
e 80 94
e 80 98
e 80 99
e 80 100
e 81 83
e 81 85
e 81 91
e 81 92
e 81 93
e 81 94
e 81 95
e 81 96
e 81 100
e 82 93
e 82 96
e 82 98
e 82 99
e 83 85
e 83 90
e 83 91
e 83 92
e 83 95
e 83 98
e 83 100
e 84 86
e 84 91
e 84 96
e 84 100
e 85 90
e 85 95
e 85 96
e 85 98
e 85 99
e 85 100
e 86 90
e 86 93
e 86 94
e 86 95
e 86 98
e 87 93
e 87 94
e 87 96
e 87 98
e 87 99
e 88 89
e 88 94
e 88 96
e 88 98
e 89 90
e 89 91
e 89 94
e 89 95
e 89 96
e 89 99
e 90 93
e 90 94
e 90 95
e 90 96
e 90 100
e 91 92
e 91 94
e 91 95
e 91 97
e 91 99
e 92 94
e 92 95
e 93 95
e 93 96
e 95 96
e 96 97
e 96 100
e 97 99
e 99 100
